
Gurobi 9.1.2 (linux64) logging started Thu Jun 16 09:52:35 2022

Changed value of parameter LogFile to ls3_sym_v-(1, 5).log
   Prev:   Default: 
Changed value of parameter MIPFocus to 1
   Prev: 0  Min: 0  Max: 3  Default: 0
Changed value of parameter TimeLimit to 10800.0
   Prev: inf  Min: 0.0  Max: inf  Default: inf
Warning: variable name "X[(5, 5),(7, 5)]" has a space
Warning: constraint name "flow-constr-t0-v(7, 5)" has a space
Warning: to let Gurobi read it back, use rlp format
Gurobi Optimizer version 9.1.2 build v9.1.2rc0 (linux64)
Thread count: 32 physical cores, 64 logical processors, using up to 32 threads
Optimize a model with 5095 rows, 4608 columns and 17600 nonzeros
Model fingerprint: 0xf9d2a117
Variable types: 512 continuous, 4096 integer (4096 binary)
Coefficient statistics:
  Matrix range     [1e+00, 7e+04]
  Objective range  [1e-01, 1e-01]
  Bounds range     [1e+00, 3e+04]
  RHS range        [1e+00, 7e+04]
Presolve removed 339 rows and 352 columns
Presolve time: 0.09s
Presolved: 4756 rows, 4256 columns, 24316 nonzeros
Variable types: 512 continuous, 3744 integer (3744 binary)

Root relaxation: objective 6.400000e+01, 149 iterations, 0.00 seconds

    Nodes    |    Current Node    |     Objective Bounds      |     Work
 Expl Unexpl |  Obj  Depth IntInf | Incumbent    BestBd   Gap | It/Node Time

     0     0   64.00000    0   40          -   64.00000      -     -    0s
H    0     0                     224.2500000   64.00000  71.5%     -    0s
H    0     0                     223.0000000   64.00000  71.3%     -    0s
H    0     0                     115.9375000   64.00000  44.8%     -    0s
H    0     0                     103.8750000   64.00000  38.4%     -    0s
     0     0   64.00000    0   85  103.87500   64.00000  38.4%     -    0s
H    0     0                     100.8750000   64.00000  36.6%     -    0s
H    0     0                      97.0750000   64.00000  34.1%     -    0s
     0     0   64.00000    0   81   97.07500   64.00000  34.1%     -    0s
H    0     0                      96.3125000   64.00000  33.5%     -    0s
H    0     0                      95.2125000   64.00000  32.8%     -    0s
     0     0   64.00000    0   30   95.21250   64.00000  32.8%     -    0s
H    0     0                      86.7500000   64.00000  26.2%     -    1s
     0     0   64.00000    0   28   86.75000   64.00000  26.2%     -    1s
     0     0   64.00000    0   30   86.75000   64.00000  26.2%     -    1s
H    0     0                      82.0625000   64.00000  22.0%     -    1s
     0     0   64.00000    0   55   82.06250   64.00000  22.0%     -    1s
H    0     0                      80.4208333   64.00000  20.4%     -    1s
H    0     0                      79.3791667   64.00000  19.4%     -    1s
     0     0   64.00000    0   28   79.37917   64.00000  19.4%     -    1s
     0     0   64.00000    0   46   79.37917   64.00000  19.4%     -    1s
     0     0   64.00000    0   34   79.37917   64.00000  19.4%     -    1s
H    0     0                      73.4500000   64.00000  12.9%     -    2s
     0     2   64.00000    0   30   73.45000   64.00000  12.9%     -    2s
H    1     4                      72.5125000   64.00000  11.7%   484    2s
H    2     4                      71.9142857   64.00000  11.0%   251    2s
H   31    64                      71.3392857   64.00000  10.3%  26.5    4s
H   42    64                      71.0965909   64.00000  10.0%  19.9    4s
H   43    64                      70.6250000   64.00000  9.38%  19.5    4s
H   96   128                      70.5625000   64.00000  9.30%  12.6    4s
H  100   128                      70.5000000   64.00000  9.22%  12.2    4s
H  159   187                      69.7500000   64.00000  8.24%   9.0    5s
H  164   187                      69.0312500   64.00000  7.29%   8.8    5s
H  181   187                      68.6666667   64.00000  6.80%   8.2    5s
H  210   239                      68.1666667   64.00000  6.11%   7.7    5s
H  251   269                      68.0416667   64.00000  5.94%   7.0    7s
H  253   269                      67.8000000   64.00000  5.60%   7.0    7s
H  254   269                      67.5000000   64.00000  5.19%   7.0    7s
H  285   301                      67.0937500   64.00000  4.61%   7.0   10s
H  287   301                      67.0000000   64.00000  4.48%   7.0   10s
H  288   301                      66.7500000   64.00000  4.12%   6.9   10s
H  289   301                      66.0000000   64.00000  3.03%   6.9   10s
H 2216  1654                      65.5000000   64.00000  2.29%  21.3   13s
H 2251  1680                      65.2000000   64.00000  1.84%  23.6   14s
H 2253  1680                      65.0000000   64.00000  1.54%  23.6   14s
  2289  3284   64.00000   70   70   65.00000   64.00000  1.54%  24.6   15s
H 2933  3284                      64.7250000   64.00000  1.12%  30.4   15s
H 4455  3254                      64.7000000   64.00000  1.08%  34.2   15s
H 4460  3095                      64.6999999   64.00000  1.08%  34.1   16s
H 4460  2940                      64.5000000   64.00000  0.78%  34.1   16s
H 4464  2794                      64.3750000   64.00000  0.58%  34.1   17s
H 4467  2656                      64.0000000   64.00000  0.00%  34.1   18s

Cutting planes:
  Learned: 2
  Gomory: 1
  Cover: 50
  Implied bound: 76
  Clique: 47
  MIR: 29
  Flow cover: 42
  GUB cover: 6
  RLT: 8
  Relax-and-lift: 34

Explored 4467 nodes (190630 simplex iterations) in 18.27 seconds
Thread count was 32 (of 64 available processors)

Solution count 10: 64 64.375 64.5 ... 66

Optimal solution found (tolerance 1.00e-04)
Best objective 6.400000000000e+01, best bound 6.400000000000e+01, gap 0.0000%
